24	3
5	8	8	
0	0	0	0	22	2	3	4	5	6	7	8	9	10	11	12	13	14	15	16	17	18	19	20	21	22	23	
4	3	3	2	1	24	
2	4	2	1	1	21	
6	1	3	1	1	24	
169	4	2	2	1	8	
5	4	3	1	1	11	
5	4	3	2	1	24	
113	3	3	2	1	16	
346	4	1	2	1	24	
111	3	3	3	1	24	
156	5	3	3	1	24	
226	3	3	1	1	24	
113	5	2	1	1	24	
261	3	1	3	1	24	
4	5	3	1	1	24	
5	4	2	3	1	21	
2	5	2	2	1	24	
111	4	3	3	1	24	
3	4	3	2	1	24	
100	4	2	3	1	24	
2	4	1	2	1	24	
208	4	1	2	1	24	
5	3	3	1	1	24	
0	0	0	0	0	